p edge 150 1118
e 1 7
e 1 17
e 1 52
e 1 55
e 1 90
e 1 98
e 1 105
e 1 108
e 1 111
e 1 120
e 1 121
e 1 147
e 2 9
e 2 17
e 2 20
e 2 25
e 2 45
e 2 52
e 2 59
e 2 60
e 2 71
e 2 80
e 2 84
e 2 88
e 2 106
e 2 112
e 2 133
e 2 148
e 3 13
e 3 16
e 3 41
e 3 53
e 3 55
e 3 97
e 3 122
e 3 123
e 3 133
e 3 146
e 3 148
e 3 150
e 4 11
e 4 15
e 4 29
e 4 59
e 4 73
e 4 79
e 4 94
e 4 98
e 4 136
e 4 140
e 5 10
e 5 22
e 5 29
e 5 40
e 5 44
e 5 72
e 5 73
e 5 75
e 5 76
e 5 85
e 5 88
e 5 112
e 6 8
e 6 13
e 6 31
e 6 39
e 6 49
e 6 52
e 6 65
e 6 76
e 6 83
e 6 96
e 6 104
e 6 106
e 6 108
e 6 116
e 6 127
e 6 132
e 6 136
e 7 12
e 7 14
e 7 17
e 7 18
e 7 40
e 7 47
e 7 50
e 7 62
e 7 70
e 7 108
e 7 122
e 7 137
e 7 140
e 7 143
e 7 145
e 8 9
e 8 19
e 8 21
e 8 45
e 8 46
e 8 61
e 8 70
e 8 73
e 8 84
e 8 87
e 8 106
e 8 120
e 8 126
e 8 127
e 8 129
e 8 130
e 8 137
e 8 138
e 9 10
e 9 16
e 9 18
e 9 28
e 9 32
e 9 38
e 9 68
e 9 70
e 9 77
e 9 79
e 9 82
e 9 86
e 9 87
e 9 91
e 9 94
e 9 97
e 9 112
e 9 115
e 9 121
e 9 131
e 9 140
e 9 150
e 10 27
e 10 30
e 10 31
e 10 48
e 10 62
e 10 65
e 10 77
e 10 78
e 10 93
e 10 100
e 10 115
e 10 131
e 10 132
e 10 141
e 11 14
e 11 16
e 11 17
e 11 19
e 11 38
e 11 44
e 11 48
e 11 49
e 11 57
e 11 62
e 11 79
e 11 80
e 11 85
e 11 95
e 11 100
e 11 119
e 11 149
e 12 13
e 12 25
e 12 38
e 12 42
e 12 52
e 12 54
e 12 56
e 12 57
e 12 62
e 12 63
e 12 73
e 12 83
e 12 84
e 12 91
e 12 105
e 12 107
e 12 109
e 12 110
e 12 111
e 12 121
e 12 124
e 12 133
e 12 141
e 12 143
e 12 148
e 13 16
e 13 23
e 13 26
e 13 44
e 13 45
e 13 46
e 13 54
e 13 55
e 13 58
e 13 60
e 13 76
e 13 110
e 13 117
e 13 132
e 14 28
e 14 48
e 14 56
e 14 68
e 14 74
e 14 82
e 14 84
e 14 85
e 14 101
e 14 105
e 14 106
e 14 113
e 14 114
e 14 130
e 14 149
e 15 17
e 15 19
e 15 42
e 15 46
e 15 49
e 15 75
e 15 76
e 15 104
e 15 107
e 15 109
e 15 120
e 15 125
e 15 126
e 15 127
e 15 135
e 16 32
e 16 38
e 16 41
e 16 47
e 16 59
e 16 70
e 16 88
e 16 103
e 16 105
e 16 113
e 16 131
e 16 140
e 16 145
e 17 24
e 17 39
e 17 44
e 17 51
e 17 59
e 17 63
e 17 65
e 17 80
e 17 84
e 17 90
e 17 93
e 17 98
e 17 120
e 17 126
e 17 128
e 17 130
e 17 135
e 17 137
e 17 141
e 17 142
e 18 19
e 18 22
e 18 28
e 18 41
e 18 47
e 18 84
e 18 85
e 18 89
e 18 98
e 18 101
e 18 106
e 18 123
e 18 126
e 18 127
e 18 135
e 19 47
e 19 59
e 19 78
e 19 111
e 19 114
e 19 132
e 20 33
e 20 42
e 20 75
e 20 78
e 20 80
e 20 110
e 20 114
e 20 118
e 20 134
e 20 143
e 21 25
e 21 37
e 21 48
e 21 52
e 21 57
e 21 61
e 21 62
e 21 69
e 21 72
e 21 81
e 21 87
e 21 110
e 21 111
e 21 119
e 21 125
e 21 136
e 21 145
e 21 149
e 22 37
e 22 51
e 22 55
e 22 86
e 22 93
e 22 106
e 22 113
e 22 126
e 22 128
e 22 139
e 22 148
e 23 29
e 23 31
e 23 36
e 23 65
e 23 69
e 23 71
e 23 76
e 23 84
e 23 89
e 23 94
e 23 116
e 23 137
e 23 150
e 24 25
e 24 50
e 24 62
e 24 82
e 24 94
e 24 99
e 24 103
e 24 108
e 24 113
e 24 122
e 24 139
e 24 141
e 24 149
e 25 36
e 25 37
e 25 43
e 25 46
e 25 50
e 25 53
e 25 56
e 25 90
e 25 92
e 25 100
e 25 102
e 25 111
e 25 114
e 25 140
e 25 148
e 26 28
e 26 31
e 26 48
e 26 49
e 26 52
e 26 56
e 26 57
e 26 66
e 26 116
e 26 119
e 26 121
e 26 124
e 26 125
e 26 132
e 26 136
e 26 147
e 27 34
e 27 37
e 27 53
e 27 55
e 27 78
e 27 88
e 27 89
e 27 90
e 27 147
e 28 50
e 28 71
e 28 78
e 28 79
e 28 80
e 28 82
e 28 89
e 28 101
e 28 122
e 28 131
e 28 143
e 29 67
e 29 95
e 29 106
e 29 113
e 29 118
e 29 132
e 29 133
e 29 135
e 29 143
e 30 50
e 30 59
e 30 69
e 30 70
e 30 76
e 30 84
e 30 86
e 30 87
e 30 135
e 30 138
e 31 84
e 31 87
e 31 98
e 31 100
e 31 126
e 31 132
e 32 33
e 32 38
e 32 44
e 32 60
e 32 64
e 32 73
e 32 85
e 32 88
e 32 90
e 32 97
e 32 104
e 32 126
e 32 130
e 32 132
e 32 133
e 32 145
e 33 66
e 33 77
e 33 82
e 33 84
e 33 97
e 33 100
e 33 110
e 33 116
e 33 125
e 33 126
e 33 129
e 33 136
e 33 142
e 33 148
e 34 43
e 34 58
e 34 61
e 34 77
e 34 85
e 34 98
e 34 103
e 34 106
e 34 115
e 34 122
e 34 142
e 34 143
e 34 145
e 34 146
e 34 148
e 35 49
e 35 50
e 35 52
e 35 54
e 35 69
e 35 75
e 35 76
e 35 77
e 35 90
e 35 105
e 35 108
e 35 128
e 35 135
e 35 138
e 35 140
e 35 143
e 35 150
e 36 40
e 36 48
e 36 60
e 36 65
e 36 94
e 36 107
e 36 141
e 36 142
e 36 143
e 36 148
e 37 48
e 37 56
e 37 58
e 37 72
e 37 83
e 37 95
e 37 112
e 38 54
e 38 76
e 38 85
e 38 96
e 38 112
e 38 114
e 38 118
e 38 120
e 39 50
e 39 51
e 39 65
e 39 77
e 39 83
e 39 86
e 39 99
e 39 103
e 39 113
e 39 120
e 39 124
e 39 127
e 39 135
e 40 64
e 40 69
e 40 76
e 40 83
e 40 116
e 40 128
e 40 134
e 40 142
e 40 143
e 40 150
e 41 48
e 41 52
e 41 56
e 41 63
e 41 71
e 41 74
e 41 77
e 41 78
e 41 80
e 41 82
e 41 87
e 41 120
e 41 130
e 42 48
e 42 83
e 42 102
e 42 134
e 42 140
e 42 142
e 42 145
e 42 147
e 43 49
e 43 52
e 43 57
e 43 66
e 43 77
e 43 101
e 43 115
e 43 133
e 43 137
e 44 60
e 44 62
e 44 65
e 44 66
e 44 69
e 44 72
e 44 76
e 44 115
e 44 117
e 44 128
e 44 130
e 44 139
e 44 149
e 45 47
e 45 63
e 45 64
e 45 70
e 45 85
e 45 117
e 45 138
e 46 49
e 46 69
e 46 100
e 46 108
e 46 109
e 46 117
e 46 131
e 46 138
e 46 144
e 47 63
e 47 69
e 47 73
e 47 76
e 47 81
e 47 92
e 47 103
e 47 115
e 47 116
e 47 119
e 47 148
e 48 72
e 48 102
e 48 104
e 48 118
e 48 128
e 48 130
e 48 138
e 48 143
e 48 148
e 49 69
e 49 71
e 49 73
e 49 76
e 49 78
e 49 81
e 49 90
e 49 93
e 49 94
e 49 96
e 49 97
e 49 108
e 49 118
e 49 121
e 49 126
e 49 139
e 50 68
e 50 86
e 50 89
e 50 106
e 50 109
e 50 110
e 50 119
e 50 129
e 50 141
e 51 54
e 51 56
e 51 59
e 51 63
e 51 102
e 51 118
e 51 122
e 51 123
e 51 141
e 51 144
e 52 61
e 52 71
e 52 95
e 52 99
e 52 100
e 52 108
e 52 115
e 52 124
e 52 141
e 53 57
e 53 70
e 53 93
e 53 123
e 53 127
e 53 133
e 54 60
e 54 79
e 54 84
e 54 89
e 54 94
e 54 97
e 54 115
e 54 118
e 54 133
e 54 139
e 55 56
e 55 70
e 55 71
e 55 75
e 55 108
e 55 119
e 55 123
e 55 144
e 55 145
e 56 64
e 56 65
e 56 77
e 56 83
e 56 95
e 56 112
e 56 122
e 56 131
e 56 146
e 57 68
e 57 81
e 57 84
e 57 100
e 57 103
e 57 114
e 57 121
e 57 125
e 57 145
e 57 147
e 58 64
e 58 66
e 58 69
e 58 78
e 58 81
e 58 87
e 58 101
e 58 106
e 58 113
e 58 128
e 58 135
e 58 147
e 59 69
e 59 71
e 59 72
e 59 78
e 59 90
e 59 95
e 59 114
e 59 116
e 59 117
e 59 118
e 59 124
e 59 138
e 60 68
e 60 73
e 60 76
e 60 84
e 60 96
e 60 106
e 60 108
e 60 113
e 60 120
e 60 121
e 60 125
e 60 133
e 60 137
e 60 145
e 61 74
e 61 75
e 61 82
e 61 96
e 61 109
e 61 120
e 61 132
e 62 69
e 62 73
e 62 92
e 62 105
e 62 109
e 62 116
e 62 144
e 62 146
e 62 147
e 63 66
e 63 108
e 63 122
e 63 126
e 63 129
e 63 143
e 63 150
e 64 76
e 64 79
e 64 82
e 64 84
e 64 86
e 64 111
e 64 117
e 64 124
e 64 126
e 64 143
e 65 71
e 65 76
e 65 139
e 65 144
e 66 85
e 66 86
e 66 98
e 66 99
e 66 105
e 66 106
e 66 107
e 66 114
e 66 120
e 66 126
e 66 127
e 66 134
e 66 141
e 66 150
e 67 83
e 67 93
e 67 98
e 67 104
e 67 126
e 68 73
e 68 74
e 68 110
e 68 112
e 68 117
e 68 125
e 68 131
e 68 148
e 69 78
e 69 107
e 69 116
e 69 126
e 69 127
e 69 135
e 69 138
e 69 143
e 70 72
e 70 88
e 70 89
e 70 90
e 70 99
e 70 114
e 70 139
e 70 145
e 70 149
e 71 74
e 71 84
e 71 85
e 71 108
e 71 117
e 71 118
e 71 132
e 71 140
e 71 144
e 71 146
e 72 88
e 72 103
e 72 107
e 72 120
e 73 84
e 73 85
e 73 87
e 73 138
e 73 150
e 74 77
e 74 100
e 74 121
e 74 131
e 75 89
e 75 90
e 75 96
e 75 98
e 75 102
e 75 119
e 75 134
e 75 140
e 76 79
e 76 103
e 76 110
e 76 125
e 76 126
e 76 129
e 76 144
e 77 92
e 77 94
e 77 96
e 77 116
e 77 120
e 77 139
e 78 80
e 78 93
e 78 100
e 78 113
e 78 114
e 78 130
e 78 135
e 78 139
e 78 140
e 79 89
e 79 111
e 79 113
e 79 133
e 79 147
e 80 88
e 80 94
e 80 96
e 80 99
e 80 104
e 80 132
e 81 101
e 81 119
e 81 145
e 82 89
e 82 90
e 82 107
e 82 109
e 82 111
e 82 118
e 82 120
e 82 132
e 82 139
e 83 103
e 83 135
e 83 150
e 84 98
e 84 101
e 84 103
e 84 105
e 84 131
e 84 140
e 84 146
e 85 94
e 85 122
e 86 89
e 86 97
e 86 109
e 86 112
e 86 123
e 86 141
e 86 145
e 87 92
e 87 93
e 87 111
e 87 112
e 87 118
e 87 119
e 87 120
e 87 137
e 87 147
e 88 102
e 88 109
e 88 114
e 88 123
e 88 125
e 88 130
e 88 134
e 88 137
e 89 97
e 89 108
e 89 143
e 90 97
e 90 124
e 90 126
e 90 139
e 90 143
e 90 144
e 91 92
e 91 118
e 91 142
e 91 143
e 91 147
e 92 97
e 92 101
e 92 103
e 92 116
e 92 125
e 92 148
e 93 95
e 93 96
e 93 109
e 93 142
e 94 110
e 94 139
e 94 141
e 94 145
e 95 103
e 95 111
e 95 115
e 95 122
e 95 131
e 95 133
e 95 138
e 95 140
e 95 141
e 95 143
e 96 99
e 96 116
e 96 121
e 96 123
e 96 126
e 96 128
e 96 130
e 96 137
e 96 146
e 97 102
e 97 104
e 97 108
e 97 111
e 97 120
e 97 131
e 97 136
e 98 100
e 98 103
e 98 106
e 98 123
e 98 133
e 98 147
e 99 105
e 99 107
e 99 108
e 99 112
e 99 128
e 99 130
e 99 133
e 100 105
e 100 112
e 100 122
e 100 123
e 100 134
e 101 121
e 101 126
e 101 144
e 101 147
e 101 150
e 102 138
e 103 114
e 103 120
e 103 125
e 103 126
e 103 138
e 103 141
e 103 149
e 104 111
e 104 116
e 104 117
e 104 120
e 104 126
e 104 134
e 104 138
e 104 145
e 104 147
e 105 123
e 105 127
e 105 128
e 105 141
e 106 118
e 106 119
e 106 128
e 106 131
e 106 139
e 106 140
e 107 110
e 108 113
e 108 116
e 108 133
e 108 137
e 109 120
e 109 140
e 109 148
e 110 111
e 110 118
e 110 121
e 110 126
e 110 128
e 110 134
e 111 131
e 111 138
e 111 143
e 112 121
e 112 122
e 112 130
e 112 142
e 113 118
e 113 131
e 114 116
e 114 126
e 114 129
e 114 134
e 114 142
e 114 148
e 115 131
e 115 150
e 117 126
e 118 146
e 119 125
e 119 137
e 120 138
e 121 138
e 122 150
e 123 130
e 123 149
e 124 125
e 124 126
e 124 132
e 124 133
e 125 127
e 125 136
e 125 137
e 126 134
e 127 136
e 128 147
e 129 131
e 129 136
e 129 145
e 130 137
e 131 137
e 131 139
e 131 141
e 132 140
e 132 146
e 133 134
e 133 143
e 134 144
e 135 148
e 136 140
e 136 143
e 136 147
e 137 144
e 137 150
e 139 146
e 139 149
e 142 148
e 143 149
e 145 147
e 145 150
e 147 148
e 147 150
e 148 150
